1
1000
60
495 1
493 1
492 1
479 1
471 1
466 1
453 1
443 1
439 1
434 1
424 1
420 1
399 1
385 1
380 1
377 1
377 1
373 1
370 1
366 1
364 1
361 1
358 1
352 1
347 1
337 1
331 1
324 1
319 1
315 1
304 1
296 1
295 1
291 1
290 1
290 1
281 1
278 1
277 1
276 1
275 1
275 1
273 1
271 1
270 1
261 1
261 1
256 1
256 1
255 1
255 1
254 1
254 1
253 1
253 1
252 1
252 1
251 1
251 1
250 1
